c ind 107 11 110 12 120 123 133 136 146 149 0
c ind 159 162 172 175 185 188 19 198 201 211 0
c ind 214 22 224 227 237 240 253 260 263 270 0
c ind 277 29 299 305 313 32 325 337 349 361 0
c ind 373 385 397 409 421 433 445 457 469 52 0
c ind 55 59 62 68 7 71 8 81 84 94 0
c ind 97 0
p cnf 710 2268
-1 -2 13 0
-1 2 12 0
-10 -11 0
-100 101 102 0
-101 81 0
-101 82 0
-102 82 0
-102 86 0
-103 81 0
-103 86 0
-104 -105 12 0
-104 -12 105 0
-105 -106 -112 0
-105 106 112 0
-106 -107 -108 0
-106 107 108 0
-108 -109 -111 0
-108 109 111 0
-109 -110 0
-111 96 0
-111 98 0
-112 113 116 0
-113 114 115 0
-114 94 0
-114 95 0
-115 95 0
-115 99 0
-116 94 0
-116 99 0
-117 -118 12 0
-117 -12 118 0
-118 -119 -125 0
-118 119 125 0
-119 -120 -121 0
-119 120 121 0
-12 0
-121 -122 -124 0
-121 122 124 0
-122 -123 0
-124 109 0
-124 111 0
-125 126 129 0
-126 127 128 0
-127 107 0
-127 108 0
-128 108 0
-128 112 0
-129 107 0
-129 112 0
-13 -14 23 0
-13 14 600 0
-130 -12 131 0
-130 -131 12 0
-131 -132 -138 0
-131 132 138 0
-132 -133 -134 0
-132 133 134 0
-134 -135 -137 0
-134 135 137 0
-135 -136 0
-137 122 0
-137 124 0
-138 139 142 0
-139 140 141 0
-14 -12 15 0
-14 -15 12 0
-140 120 0
-140 121 0
-141 121 0
-141 125 0
-142 120 0
-142 125 0
-143 -12 144 0
-143 -144 12 0
-144 -145 -151 0
-144 145 151 0
-145 -146 -147 0
-145 146 147 0
-147 -148 -150 0
-147 148 150 0
-148 -149 0
-15 -16 -12 0
-15 16 12 0
-150 135 0
-150 137 0
-151 152 155 0
-152 153 154 0
-153 133 0
-153 134 0
-154 134 0
-154 138 0
-155 133 0
-155 138 0
-156 -12 157 0
-156 -157 12 0
-157 -158 -164 0
-157 158 164 0
-158 -159 -160 0
-158 159 160 0
-16 -17 -20 0
-16 17 20 0
-160 -161 -163 0
-160 161 163 0
-161 -162 0
-163 148 0
-163 150 0
-164 165 168 0
-165 166 167 0
-166 146 0
-166 147 0
-167 147 0
-167 151 0
-168 146 0
-168 151 0
-169 -12 170 0
-169 -170 12 0
-17 -18 -8 0
-17 18 8 0
-170 -171 -177 0
-170 171 177 0
-171 -172 -173 0
-171 172 173 0
-173 -174 -176 0
-173 174 176 0
-174 -175 0
-176 161 0
-176 163 0
-177 178 181 0
-178 179 180 0
-179 159 0
-179 160 0
-18 -19 0
-180 160 0
-180 164 0
-181 159 0
-181 164 0
-182 -12 183 0
-182 -183 12 0
-183 -184 -190 0
-183 184 190 0
-184 -185 -186 0
-184 185 186 0
-186 -187 -189 0
-186 187 189 0
-187 -188 0
-189 174 0
-189 176 0
-190 191 194 0
-191 192 193 0
-192 172 0
-192 173 0
-193 173 0
-193 177 0
-194 172 0
-194 177 0
-195 -12 196 0
-195 -196 12 0
-196 -197 -203 0
-196 197 203 0
-197 -198 -199 0
-197 198 199 0
-199 -200 -202 0
-199 200 202 0
-2 -12 3 0
-2 -3 12 0
-20 -21 -8 0
-20 21 8 0
-200 -201 0
-202 187 0
-202 189 0
-203 204 207 0
-204 205 206 0
-205 185 0
-205 186 0
-206 186 0
-206 190 0
-207 185 0
-207 190 0
-208 -12 209 0
-208 -209 12 0
-209 -210 -216 0
-209 210 216 0
-21 -22 0
-210 -211 -212 0
-210 211 212 0
-212 -213 -215 0
-212 213 215 0
-213 -214 0
-215 200 0
-215 202 0
-216 217 220 0
-217 218 219 0
-218 198 0
-218 199 0
-219 199 0
-219 203 0
-220 198 0
-220 203 0
-221 -12 222 0
-221 -222 12 0
-222 -223 -229 0
-222 223 229 0
-223 -224 -225 0
-223 224 225 0
-225 -226 -228 0
-225 226 228 0
-226 -227 0
-228 213 0
-228 215 0
-229 230 233 0
-23 -24 33 0
-23 24 588 0
-230 231 232 0
-231 211 0
-231 212 0
-232 212 0
-232 216 0
-233 211 0
-233 216 0
-234 -12 235 0
-234 -235 12 0
-235 -236 -242 0
-235 236 242 0
-236 -237 -238 0
-236 237 238 0
-238 -239 -241 0
-238 239 241 0
-239 -240 0
-24 -12 25 0
-24 -25 12 0
-241 226 0
-241 228 0
-242 243 246 0
-243 244 245 0
-244 224 0
-244 225 0
-245 225 0
-245 229 0
-246 224 0
-246 229 0
-247 -248 254 0
-247 248 12 0
-248 -12 249 0
-248 -249 12 0
-249 -250 -12 0
-249 250 12 0
-25 -26 -12 0
-25 26 12 0
-250 -251 -9 0
-250 251 9 0
-251 -252 -8 0
-251 252 8 0
-252 -253 0
-254 -255 264 0
-254 255 12 0
-255 -12 256 0
-255 -256 12 0
-256 -257 -12 0
-256 257 12 0
-257 -258 -261 0
-257 258 261 0
-258 -259 -8 0
-258 259 8 0
-259 -260 0
-26 -27 -30 0
-26 27 30 0
-261 -262 -8 0
-261 262 8 0
-262 -263 0
-264 -265 271 0
-264 265 485 0
-265 -12 266 0
-265 -266 12 0
-266 -267 -12 0
-266 267 12 0
-267 -20 -268 0
-267 20 268 0
-268 -269 -8 0
-268 269 8 0
-269 -270 0
-27 -28 -8 0
-27 28 8 0
-271 -272 278 0
-271 272 480 0
-272 -12 273 0
-272 -273 12 0
-273 -274 -12 0
-273 274 12 0
-274 -30 -275 0
-274 30 275 0
-275 -276 -8 0
-275 276 8 0
-276 -277 0
-278 -279 476 0
-278 279 12 0
-279 280 0
-279 464 0
-28 -29 0
-280 281 0
-280 452 0
-281 282 0
-281 440 0
-282 283 0
-282 428 0
-283 284 0
-283 416 0
-284 285 0
-284 404 0
-285 286 0
-285 392 0
-286 287 0
-286 380 0
-287 288 0
-287 368 0
-288 289 0
-288 356 0
-289 290 0
-289 344 0
-290 291 0
-290 332 0
-291 292 0
-291 320 0
-292 293 0
-292 308 0
-293 294 0
-293 300 0
-294 -12 295 0
-294 -295 12 0
-295 -296 -12 0
-295 296 12 0
-296 -55 -297 0
-296 55 297 0
-297 -298 -8 0
-297 298 8 0
-298 -299 0
-3 -4 -12 0
-3 4 12 0
-30 -31 -8 0
-30 31 8 0
-300 -12 301 0
-300 -301 12 0
-301 -302 -307 0
-301 302 307 0
-302 -62 -303 0
-302 62 303 0
-303 -304 -306 0
-303 304 306 0
-304 -305 0
-306 298 0
-306 8 0
-307 297 0
-307 55 0
-308 -12 309 0
-308 -309 12 0
-309 -310 -315 0
-309 310 315 0
-31 -32 0
-310 -71 -311 0
-310 71 311 0
-311 -312 -314 0
-311 312 314 0
-312 -313 0
-314 304 0
-314 306 0
-315 316 319 0
-316 317 318 0
-317 303 0
-317 62 0
-318 303 0
-318 307 0
-319 307 0
-319 62 0
-320 -12 321 0
-320 -321 12 0
-321 -322 -327 0
-321 322 327 0
-322 -84 -323 0
-322 84 323 0
-323 -324 -326 0
-323 324 326 0
-324 -325 0
-326 312 0
-326 314 0
-327 328 331 0
-328 329 330 0
-329 311 0
-329 71 0
-33 -34 247 0
-33 34 12 0
-330 311 0
-330 315 0
-331 315 0
-331 71 0
-332 -12 333 0
-332 -333 12 0
-333 -334 -339 0
-333 334 339 0
-334 -97 -335 0
-334 97 335 0
-335 -336 -338 0
-335 336 338 0
-336 -337 0
-338 324 0
-338 326 0
-339 340 343 0
-34 234 0
-34 35 0
-340 341 342 0
-341 323 0
-341 84 0
-342 323 0
-342 327 0
-343 327 0
-343 84 0
-344 -12 345 0
-344 -345 12 0
-345 -346 -351 0
-345 346 351 0
-346 -110 -347 0
-346 110 347 0
-347 -348 -350 0
-347 348 350 0
-348 -349 0
-35 221 0
-35 36 0
-350 336 0
-350 338 0
-351 352 355 0
-352 353 354 0
-353 335 0
-353 97 0
-354 335 0
-354 339 0
-355 339 0
-355 97 0
-356 -12 357 0
-356 -357 12 0
-357 -358 -363 0
-357 358 363 0
-358 -123 -359 0
-358 123 359 0
-359 -360 -362 0
-359 360 362 0
-36 208 0
-36 37 0
-360 -361 0
-362 348 0
-362 350 0
-363 364 367 0
-364 365 366 0
-365 110 0
-365 347 0
-366 347 0
-366 351 0
-367 110 0
-367 351 0
-368 -12 369 0
-368 -369 12 0
-369 -370 -375 0
-369 370 375 0
-37 195 0
-37 38 0
-370 -136 -371 0
-370 136 371 0
-371 -372 -374 0
-371 372 374 0
-372 -373 0
-374 360 0
-374 362 0
-375 376 379 0
-376 377 378 0
-377 123 0
-377 359 0
-378 359 0
-378 363 0
-379 123 0
-379 363 0
-38 182 0
-38 39 0
-380 -12 381 0
-380 -381 12 0
-381 -382 -387 0
-381 382 387 0
-382 -149 -383 0
-382 149 383 0
-383 -384 -386 0
-383 384 386 0
-384 -385 0
-386 372 0
-386 374 0
-387 388 391 0
-388 389 390 0
-389 136 0
-389 371 0
-39 169 0
-39 40 0
-390 371 0
-390 375 0
-391 136 0
-391 375 0
-392 -12 393 0
-392 -393 12 0
-393 -394 -399 0
-393 394 399 0
-394 -162 -395 0
-394 162 395 0
-395 -396 -398 0
-395 396 398 0
-396 -397 0
-398 384 0
-398 386 0
-399 400 403 0
-4 -5 -9 0
-4 5 9 0
-40 156 0
-40 41 0
-400 401 402 0
-401 149 0
-401 383 0
-402 383 0
-402 387 0
-403 149 0
-403 387 0
-404 -12 405 0
-404 -405 12 0
-405 -406 -411 0
-405 406 411 0
-406 -175 -407 0
-406 175 407 0
-407 -408 -410 0
-407 408 410 0
-408 -409 0
-41 143 0
-41 42 0
-410 396 0
-410 398 0
-411 412 415 0
-412 413 414 0
-413 162 0
-413 395 0
-414 395 0
-414 399 0
-415 162 0
-415 399 0
-416 -12 417 0
-416 -417 12 0
-417 -418 -423 0
-417 418 423 0
-418 -188 -419 0
-418 188 419 0
-419 -420 -422 0
-419 420 422 0
-42 130 0
-42 43 0
-420 -421 0
-422 408 0
-422 410 0
-423 424 427 0
-424 425 426 0
-425 175 0
-425 407 0
-426 407 0
-426 411 0
-427 175 0
-427 411 0
-428 -12 429 0
-428 -429 12 0
-429 -430 -435 0
-429 430 435 0
-43 117 0
-43 44 0
-430 -201 -431 0
-430 201 431 0
-431 -432 -434 0
-431 432 434 0
-432 -433 0
-434 420 0
-434 422 0
-435 436 439 0
-436 437 438 0
-437 188 0
-437 419 0
-438 419 0
-438 423 0
-439 188 0
-439 423 0
-44 104 0
-44 45 0
-440 -12 441 0
-440 -441 12 0
-441 -442 -447 0
-441 442 447 0
-442 -214 -443 0
-442 214 443 0
-443 -444 -446 0
-443 444 446 0
-444 -445 0
-446 432 0
-446 434 0
-447 448 451 0
-448 449 450 0
-449 201 0
-449 431 0
-45 46 0
-45 91 0
-450 431 0
-450 435 0
-451 201 0
-451 435 0
-452 -12 453 0
-452 -453 12 0
-453 -454 -459 0
-453 454 459 0
-454 -227 -455 0
-454 227 455 0
-455 -456 -458 0
-455 456 458 0
-456 -457 0
-458 444 0
-458 446 0
-459 460 463 0
-46 47 0
-46 78 0
-460 461 462 0
-461 214 0
-461 443 0
-462 443 0
-462 447 0
-463 214 0
-463 447 0
-464 -12 465 0
-464 -465 12 0
-465 -466 -471 0
-465 466 471 0
-466 -240 -467 0
-466 240 467 0
-467 -468 -470 0
-467 468 470 0
-468 -469 0
-47 48 0
-47 65 0
-470 456 0
-470 458 0
-471 472 475 0
-472 473 474 0
-473 227 0
-473 455 0
-474 455 0
-474 459 0
-475 227 0
-475 459 0
-476 -477 8 0
-476 477 12 0
-477 -12 478 0
-477 -478 12 0
-478 -479 -12 0
-478 479 12 0
-479 -9 -261 0
-479 9 261 0
-48 49 0
-48 56 0
-480 -481 482 0
-480 481 278 0
-481 -275 8 0
-481 -8 275 0
-482 -279 483 0
-482 279 12 0
-483 -484 8 0
-483 484 12 0
-484 -261 8 0
-484 -8 261 0
-485 -481 482 0
-485 481 486 0
-486 -279 487 0
-486 279 489 0
-487 -488 12 0
-487 488 476 0
-488 -268 8 0
-488 -8 268 0
-489 -488 490 0
-489 488 12 0
-49 -12 50 0
-49 -50 12 0
-490 -491 522 0
-490 491 556 0
-491 492 0
-491 521 0
-492 493 0
-492 520 0
-493 494 0
-493 519 0
-494 495 0
-494 518 0
-495 496 0
-495 517 0
-496 497 0
-496 516 0
-497 498 0
-497 515 0
-498 499 0
-498 514 0
-499 500 0
-499 513 0
-5 -6 -8 0
-5 6 8 0
-50 -51 -12 0
-50 51 12 0
-500 501 0
-500 512 0
-501 502 0
-501 511 0
-502 503 0
-502 510 0
-503 504 0
-503 509 0
-504 505 0
-504 508 0
-505 506 0
-505 507 0
-506 -55 8 0
-506 -8 55 0
-507 -62 8 0
-507 -8 62 0
-508 -71 8 0
-508 -8 71 0
-509 -8 84 0
-509 -84 8 0
-51 -52 -53 0
-51 52 53 0
-510 -8 97 0
-510 -97 8 0
-511 -110 8 0
-511 -8 110 0
-512 -123 8 0
-512 -8 123 0
-513 -136 8 0
-513 -8 136 0
-514 -149 8 0
-514 -8 149 0
-515 -162 8 0
-515 -8 162 0
-516 -175 8 0
-516 -8 175 0
-517 -188 8 0
-517 -8 188 0
-518 -201 8 0
-518 -8 201 0
-519 -214 8 0
-519 -8 214 0
-520 -227 8 0
-520 -8 227 0
-521 -240 8 0
-521 -8 240 0
-522 -523 554 0
-522 523 12 0
-523 524 0
-523 553 0
-524 525 0
-524 552 0
-525 526 0
-525 551 0
-526 527 0
-526 550 0
-527 528 0
-527 549 0
-528 529 0
-528 548 0
-529 530 0
-529 547 0
-53 -54 -8 0
-53 54 8 0
-530 531 0
-530 546 0
-531 532 0
-531 545 0
-532 533 0
-532 544 0
-533 534 0
-533 543 0
-534 535 0
-534 542 0
-535 536 0
-535 541 0
-536 537 0
-536 540 0
-537 538 0
-537 539 0
-538 -12 299 0
-538 -299 12 0
-539 -12 305 0
-539 -305 12 0
-54 -55 0
-540 -12 313 0
-540 -313 12 0
-541 -12 325 0
-541 -325 12 0
-542 -12 337 0
-542 -337 12 0
-543 -12 349 0
-543 -349 12 0
-544 -12 361 0
-544 -361 12 0
-545 -12 373 0
-545 -373 12 0
-546 -12 385 0
-546 -385 12 0
-547 -12 397 0
-547 -397 12 0
-548 -12 409 0
-548 -409 12 0
-549 -12 421 0
-549 -421 12 0
-550 -12 433 0
-550 -433 12 0
-551 -12 445 0
-551 -445 12 0
-552 -12 457 0
-552 -457 12 0
-553 -12 469 0
-553 -469 12 0
-554 -555 8 0
-554 555 12 0
-555 -478 8 0
-555 -8 478 0
-556 -557 476 0
-556 557 12 0
-557 558 0
-557 587 0
-558 559 0
-558 586 0
-559 560 0
-559 585 0
-56 -12 57 0
-56 -57 12 0
-560 561 0
-560 584 0
-561 562 0
-561 583 0
-562 563 0
-562 582 0
-563 564 0
-563 581 0
-564 565 0
-564 580 0
-565 566 0
-565 579 0
-566 567 0
-566 578 0
-567 568 0
-567 577 0
-568 569 0
-568 576 0
-569 570 0
-569 575 0
-57 -58 -64 0
-57 58 64 0
-570 571 0
-570 574 0
-571 572 0
-571 573 0
-572 -295 8 0
-572 -8 295 0
-573 -301 8 0
-573 -8 301 0
-574 -309 8 0
-574 -8 309 0
-575 -321 8 0
-575 -8 321 0
-576 -333 8 0
-576 -8 333 0
-577 -345 8 0
-577 -8 345 0
-578 -357 8 0
-578 -8 357 0
-579 -369 8 0
-579 -8 369 0
-58 -59 -60 0
-58 59 60 0
-580 -381 8 0
-580 -8 381 0
-581 -393 8 0
-581 -8 393 0
-582 -405 8 0
-582 -8 405 0
-583 -417 8 0
-583 -8 417 0
-584 -429 8 0
-584 -8 429 0
-585 -441 8 0
-585 -8 441 0
-586 -453 8 0
-586 -8 453 0
-587 -465 8 0
-587 -8 465 0
-588 -589 590 0
-588 589 595 0
-589 -30 8 0
-589 -8 30 0
-590 -34 591 0
-590 34 12 0
-591 -592 593 0
-591 592 12 0
-592 -8 9 0
-592 -9 8 0
-593 -255 594 0
-593 255 12 0
-594 -265 278 0
-594 265 485 0
-595 -34 596 0
-595 34 12 0
-596 -248 597 0
-596 248 12 0
-597 -255 598 0
-597 255 12 0
-598 -265 599 0
-598 265 485 0
-599 -272 278 0
-599 272 482 0
-6 -7 0
-60 -61 -63 0
-60 61 63 0
-600 -589 590 0
-600 589 601 0
-601 -34 602 0
-601 34 609 0
-602 -603 12 0
-602 603 604 0
-603 -20 8 0
-603 -8 20 0
-604 -248 605 0
-604 248 12 0
-605 -255 606 0
-605 255 12 0
-606 -265 599 0
-606 265 607 0
-607 -481 482 0
-607 481 608 0
-608 -279 12 0
-608 279 490 0
-609 -603 610 0
-609 603 12 0
-61 -62 0
-610 -611 642 0
-610 611 678 0
-611 612 0
-611 641 0
-612 613 0
-612 640 0
-613 614 0
-613 639 0
-614 615 0
-614 638 0
-615 616 0
-615 637 0
-616 617 0
-616 636 0
-617 618 0
-617 635 0
-618 619 0
-618 634 0
-619 620 0
-619 633 0
-620 621 0
-620 632 0
-621 622 0
-621 631 0
-622 623 0
-622 630 0
-623 624 0
-623 629 0
-624 625 0
-624 628 0
-625 626 0
-625 627 0
-626 -52 8 0
-626 -8 52 0
-627 -59 8 0
-627 -8 59 0
-628 -68 8 0
-628 -8 68 0
-629 -8 81 0
-629 -81 8 0
-63 54 0
-63 8 0
-630 -8 94 0
-630 -94 8 0
-631 -107 8 0
-631 -8 107 0
-632 -120 8 0
-632 -8 120 0
-633 -133 8 0
-633 -8 133 0
-634 -146 8 0
-634 -8 146 0
-635 -159 8 0
-635 -8 159 0
-636 -172 8 0
-636 -8 172 0
-637 -185 8 0
-637 -8 185 0
-638 -198 8 0
-638 -8 198 0
-639 -211 8 0
-639 -8 211 0
-64 52 0
-64 53 0
-640 -224 8 0
-640 -8 224 0
-641 -237 8 0
-641 -8 237 0
-642 -643 674 0
-642 643 12 0
-643 644 0
-643 673 0
-644 645 0
-644 672 0
-645 646 0
-645 671 0
-646 647 0
-646 670 0
-647 648 0
-647 669 0
-648 649 0
-648 668 0
-649 650 0
-649 667 0
-65 -12 66 0
-65 -66 12 0
-650 651 0
-650 666 0
-651 652 0
-651 665 0
-652 653 0
-652 664 0
-653 654 0
-653 663 0
-654 655 0
-654 662 0
-655 656 0
-655 661 0
-656 657 0
-656 660 0
-657 658 0
-657 659 0
-658 -12 55 0
-658 -55 12 0
-659 -12 62 0
-659 -62 12 0
-66 -67 -73 0
-66 67 73 0
-660 -12 71 0
-660 -71 12 0
-661 -12 84 0
-661 -84 12 0
-662 -12 97 0
-662 -97 12 0
-663 -110 12 0
-663 -12 110 0
-664 -12 123 0
-664 -123 12 0
-665 -12 136 0
-665 -136 12 0
-666 -12 149 0
-666 -149 12 0
-667 -12 162 0
-667 -162 12 0
-668 -12 175 0
-668 -175 12 0
-669 -12 188 0
-669 -188 12 0
-67 -68 -69 0
-67 68 69 0
-670 -12 201 0
-670 -201 12 0
-671 -12 214 0
-671 -214 12 0
-672 -12 227 0
-672 -227 12 0
-673 -12 240 0
-673 -240 12 0
-674 -675 676 0
-674 675 12 0
-675 -249 8 0
-675 -8 249 0
-676 -255 677 0
-676 255 12 0
-677 -265 599 0
-677 265 480 0
-678 -679 710 0
-678 679 12 0
-679 680 0
-679 709 0
-680 681 0
-680 708 0
-681 682 0
-681 707 0
-682 683 0
-682 706 0
-683 684 0
-683 705 0
-684 685 0
-684 704 0
-685 686 0
-685 703 0
-686 687 0
-686 702 0
-687 688 0
-687 701 0
-688 689 0
-688 700 0
-689 690 0
-689 699 0
-69 -70 -72 0
-69 70 72 0
-690 691 0
-690 698 0
-691 692 0
-691 697 0
-692 693 0
-692 696 0
-693 694 0
-693 695 0
-694 -50 8 0
-694 -8 50 0
-695 -57 8 0
-695 -8 57 0
-696 -66 8 0
-696 -8 66 0
-697 -79 8 0
-697 -8 79 0
-698 -8 92 0
-698 -92 8 0
-699 -105 8 0
-699 -8 105 0
-70 -71 0
-700 -118 8 0
-700 -8 118 0
-701 -131 8 0
-701 -8 131 0
-702 -144 8 0
-702 -8 144 0
-703 -157 8 0
-703 -8 157 0
-704 -170 8 0
-704 -8 170 0
-705 -183 8 0
-705 -8 183 0
-706 -196 8 0
-706 -8 196 0
-707 -209 8 0
-707 -8 209 0
-708 -222 8 0
-708 -8 222 0
-709 -235 8 0
-709 -8 235 0
-710 -248 676 0
-710 248 12 0
-72 61 0
-72 63 0
-73 74 77 0
-74 75 76 0
-75 59 0
-75 60 0
-76 60 0
-76 64 0
-77 59 0
-77 64 0
-78 -12 79 0
-78 -79 12 0
-79 -80 -86 0
-79 80 86 0
-80 -81 -82 0
-80 81 82 0
-82 -83 -85 0
-82 83 85 0
-83 -84 0
-85 70 0
-85 72 0
-86 87 90 0
-87 88 89 0
-88 68 0
-88 69 0
-89 69 0
-89 73 0
-9 -10 -8 0
-9 10 8 0
-90 68 0
-90 73 0
-91 -12 92 0
-91 -92 12 0
-92 -93 -99 0
-92 93 99 0
-93 -94 -95 0
-93 94 95 0
-95 -96 -98 0
-95 96 98 0
-96 -97 0
-98 83 0
-98 85 0
-99 100 103 0
1 -13 -12 0
1 -2 -13 0
1 0
1 2 -12 0
10 11 0
100 -101 0
100 -102 0
101 -81 -82 0
102 -82 -86 0
103 -81 -86 0
104 -105 -12 0
104 105 12 0
105 -106 112 0
105 -112 106 0
106 -107 108 0
106 -108 107 0
108 -109 111 0
108 -111 109 0
109 110 0
111 -96 -98 0
112 -113 0
112 -116 0
113 -114 0
113 -115 0
114 -94 -95 0
115 -95 -99 0
116 -94 -99 0
117 -118 -12 0
117 118 12 0
118 -119 125 0
118 -125 119 0
119 -120 121 0
119 -121 120 0
121 -122 124 0
121 -124 122 0
122 123 0
124 -109 -111 0
125 -126 0
125 -129 0
126 -127 0
126 -128 0
127 -107 -108 0
128 -108 -112 0
129 -107 -112 0
13 -14 -23 0
13 -23 -600 0
13 14 -600 0
130 -131 -12 0
130 131 12 0
131 -132 138 0
131 -138 132 0
132 -133 134 0
132 -134 133 0
134 -135 137 0
134 -137 135 0
135 136 0
137 -122 -124 0
138 -139 0
138 -142 0
139 -140 0
139 -141 0
14 -15 -12 0
14 15 12 0
140 -120 -121 0
141 -121 -125 0
142 -120 -125 0
143 -144 -12 0
143 144 12 0
144 -145 151 0
144 -151 145 0
145 -146 147 0
145 -147 146 0
147 -148 150 0
147 -150 148 0
148 149 0
15 -12 16 0
15 -16 12 0
150 -135 -137 0
151 -152 0
151 -155 0
152 -153 0
152 -154 0
153 -133 -134 0
154 -134 -138 0
155 -133 -138 0
156 -157 -12 0
156 157 12 0
157 -158 164 0
157 -164 158 0
158 -159 160 0
158 -160 159 0
16 -17 20 0
16 -20 17 0
160 -161 163 0
160 -163 161 0
161 162 0
163 -148 -150 0
164 -165 0
164 -168 0
165 -166 0
165 -167 0
166 -146 -147 0
167 -147 -151 0
168 -146 -151 0
169 -170 -12 0
169 170 12 0
17 -18 8 0
17 -8 18 0
170 -171 177 0
170 -177 171 0
171 -172 173 0
171 -173 172 0
173 -174 176 0
173 -176 174 0
174 175 0
176 -161 -163 0
177 -178 0
177 -181 0
178 -179 0
178 -180 0
179 -159 -160 0
18 19 0
180 -160 -164 0
181 -159 -164 0
182 -183 -12 0
182 183 12 0
183 -184 190 0
183 -190 184 0
184 -185 186 0
184 -186 185 0
186 -187 189 0
186 -189 187 0
187 188 0
189 -174 -176 0
190 -191 0
190 -194 0
191 -192 0
191 -193 0
192 -172 -173 0
193 -173 -177 0
194 -172 -177 0
195 -196 -12 0
195 196 12 0
196 -197 203 0
196 -203 197 0
197 -198 199 0
197 -199 198 0
199 -200 202 0
199 -202 200 0
2 -3 -12 0
2 3 12 0
20 -21 8 0
20 -8 21 0
200 201 0
202 -187 -189 0
203 -204 0
203 -207 0
204 -205 0
204 -206 0
205 -185 -186 0
206 -186 -190 0
207 -185 -190 0
208 -209 -12 0
208 209 12 0
209 -210 216 0
209 -216 210 0
21 22 0
210 -211 212 0
210 -212 211 0
212 -213 215 0
212 -215 213 0
213 214 0
215 -200 -202 0
216 -217 0
216 -220 0
217 -218 0
217 -219 0
218 -198 -199 0
219 -199 -203 0
220 -198 -203 0
221 -222 -12 0
221 222 12 0
222 -223 229 0
222 -229 223 0
223 -224 225 0
223 -225 224 0
225 -226 228 0
225 -228 226 0
226 227 0
228 -213 -215 0
229 -230 0
229 -233 0
23 -24 -33 0
23 -33 -588 0
23 24 -588 0
230 -231 0
230 -232 0
231 -211 -212 0
232 -212 -216 0
233 -211 -216 0
234 -235 -12 0
234 235 12 0
235 -236 242 0
235 -242 236 0
236 -237 238 0
236 -238 237 0
238 -239 241 0
238 -241 239 0
239 240 0
24 -25 -12 0
24 25 12 0
241 -226 -228 0
242 -243 0
242 -246 0
243 -244 0
243 -245 0
244 -224 -225 0
245 -225 -229 0
246 -224 -229 0
247 -248 -254 0
247 -254 -12 0
247 248 -12 0
248 -249 -12 0
248 249 12 0
249 -12 250 0
249 -250 12 0
25 -12 26 0
25 -26 12 0
250 -251 9 0
250 -9 251 0
251 -252 8 0
251 -8 252 0
252 253 0
254 -255 -264 0
254 -264 -12 0
254 255 -12 0
255 -256 -12 0
255 256 12 0
256 -12 257 0
256 -257 12 0
257 -258 261 0
257 -261 258 0
258 -259 8 0
258 -8 259 0
259 260 0
26 -27 30 0
26 -30 27 0
261 -262 8 0
261 -8 262 0
262 263 0
264 -265 -271 0
264 -271 -485 0
264 265 -485 0
265 -266 -12 0
265 266 12 0
266 -12 267 0
266 -267 12 0
267 -20 268 0
267 -268 20 0
268 -269 8 0
268 -8 269 0
269 270 0
27 -28 8 0
27 -8 28 0
271 -272 -278 0
271 -278 -480 0
271 272 -480 0
272 -273 -12 0
272 273 12 0
273 -12 274 0
273 -274 12 0
274 -275 30 0
274 -30 275 0
275 -276 8 0
275 -8 276 0
276 277 0
278 -279 -476 0
278 -476 -12 0
278 279 -12 0
279 -280 -464 0
28 29 0
280 -281 -452 0
281 -282 -440 0
282 -283 -428 0
283 -284 -416 0
284 -285 -404 0
285 -286 -392 0
286 -287 -380 0
287 -288 -368 0
288 -289 -356 0
289 -290 -344 0
290 -291 -332 0
291 -292 -320 0
292 -293 -308 0
293 -294 -300 0
294 -295 -12 0
294 295 12 0
295 -12 296 0
295 -296 12 0
296 -297 55 0
296 -55 297 0
297 -298 8 0
297 -8 298 0
298 299 0
3 -12 4 0
3 -4 12 0
30 -31 8 0
30 -8 31 0
300 -301 -12 0
300 301 12 0
301 -302 307 0
301 -307 302 0
302 -303 62 0
302 -62 303 0
303 -304 306 0
303 -306 304 0
304 305 0
306 -298 -8 0
307 -55 -297 0
308 -309 -12 0
308 309 12 0
309 -310 315 0
309 -315 310 0
31 32 0
310 -311 71 0
310 -71 311 0
311 -312 314 0
311 -314 312 0
312 313 0
314 -304 -306 0
315 -316 0
315 -319 0
316 -317 0
316 -318 0
317 -62 -303 0
318 -303 -307 0
319 -62 -307 0
320 -321 -12 0
320 321 12 0
321 -322 327 0
321 -327 322 0
322 -323 84 0
322 -84 323 0
323 -324 326 0
323 -326 324 0
324 325 0
326 -312 -314 0
327 -328 0
327 -331 0
328 -329 0
328 -330 0
329 -71 -311 0
33 -247 -12 0
33 -34 -247 0
33 34 -12 0
330 -311 -315 0
331 -71 -315 0
332 -333 -12 0
332 333 12 0
333 -334 339 0
333 -339 334 0
334 -335 97 0
334 -97 335 0
335 -336 338 0
335 -338 336 0
336 337 0
338 -324 -326 0
339 -340 0
339 -343 0
34 -35 -234 0
340 -341 0
340 -342 0
341 -84 -323 0
342 -323 -327 0
343 -84 -327 0
344 -345 -12 0
344 345 12 0
345 -346 351 0
345 -351 346 0
346 -110 347 0
346 -347 110 0
347 -348 350 0
347 -350 348 0
348 349 0
35 -36 -221 0
350 -336 -338 0
351 -352 0
351 -355 0
352 -353 0
352 -354 0
353 -97 -335 0
354 -335 -339 0
355 -97 -339 0
356 -357 -12 0
356 357 12 0
357 -358 363 0
357 -363 358 0
358 -123 359 0
358 -359 123 0
359 -360 362 0
359 -362 360 0
36 -37 -208 0
360 361 0
362 -348 -350 0
363 -364 0
363 -367 0
364 -365 0
364 -366 0
365 -110 -347 0
366 -347 -351 0
367 -110 -351 0
368 -369 -12 0
368 369 12 0
369 -370 375 0
369 -375 370 0
37 -38 -195 0
370 -136 371 0
370 -371 136 0
371 -372 374 0
371 -374 372 0
372 373 0
374 -360 -362 0
375 -376 0
375 -379 0
376 -377 0
376 -378 0
377 -123 -359 0
378 -359 -363 0
379 -123 -363 0
38 -39 -182 0
380 -381 -12 0
380 381 12 0
381 -382 387 0
381 -387 382 0
382 -149 383 0
382 -383 149 0
383 -384 386 0
383 -386 384 0
384 385 0
386 -372 -374 0
387 -388 0
387 -391 0
388 -389 0
388 -390 0
389 -136 -371 0
39 -40 -169 0
390 -371 -375 0
391 -136 -375 0
392 -393 -12 0
392 393 12 0
393 -394 399 0
393 -399 394 0
394 -162 395 0
394 -395 162 0
395 -396 398 0
395 -398 396 0
396 397 0
398 -384 -386 0
399 -400 0
399 -403 0
4 -5 9 0
4 -9 5 0
40 -41 -156 0
400 -401 0
400 -402 0
401 -149 -383 0
402 -383 -387 0
403 -149 -387 0
404 -405 -12 0
404 405 12 0
405 -406 411 0
405 -411 406 0
406 -175 407 0
406 -407 175 0
407 -408 410 0
407 -410 408 0
408 409 0
41 -42 -143 0
410 -396 -398 0
411 -412 0
411 -415 0
412 -413 0
412 -414 0
413 -162 -395 0
414 -395 -399 0
415 -162 -399 0
416 -417 -12 0
416 417 12 0
417 -418 423 0
417 -423 418 0
418 -188 419 0
418 -419 188 0
419 -420 422 0
419 -422 420 0
42 -43 -130 0
420 421 0
422 -408 -410 0
423 -424 0
423 -427 0
424 -425 0
424 -426 0
425 -175 -407 0
426 -407 -411 0
427 -175 -411 0
428 -429 -12 0
428 429 12 0
429 -430 435 0
429 -435 430 0
43 -44 -117 0
430 -201 431 0
430 -431 201 0
431 -432 434 0
431 -434 432 0
432 433 0
434 -420 -422 0
435 -436 0
435 -439 0
436 -437 0
436 -438 0
437 -188 -419 0
438 -419 -423 0
439 -188 -423 0
44 -45 -104 0
440 -441 -12 0
440 441 12 0
441 -442 447 0
441 -447 442 0
442 -214 443 0
442 -443 214 0
443 -444 446 0
443 -446 444 0
444 445 0
446 -432 -434 0
447 -448 0
447 -451 0
448 -449 0
448 -450 0
449 -201 -431 0
45 -46 -91 0
450 -431 -435 0
451 -201 -435 0
452 -453 -12 0
452 453 12 0
453 -454 459 0
453 -459 454 0
454 -227 455 0
454 -455 227 0
455 -456 458 0
455 -458 456 0
456 457 0
458 -444 -446 0
459 -460 0
459 -463 0
46 -47 -78 0
460 -461 0
460 -462 0
461 -214 -443 0
462 -443 -447 0
463 -214 -447 0
464 -465 -12 0
464 465 12 0
465 -466 471 0
465 -471 466 0
466 -240 467 0
466 -467 240 0
467 -468 470 0
467 -470 468 0
468 469 0
47 -48 -65 0
470 -456 -458 0
471 -472 0
471 -475 0
472 -473 0
472 -474 0
473 -227 -455 0
474 -455 -459 0
475 -227 -459 0
476 -477 -8 0
476 -8 -12 0
476 477 -12 0
477 -478 -12 0
477 478 12 0
478 -12 479 0
478 -479 12 0
479 -261 9 0
479 -9 261 0
48 -49 -56 0
480 -481 -482 0
480 -482 -278 0
480 481 -278 0
481 -275 -8 0
481 275 8 0
482 -279 -483 0
482 -483 -12 0
482 279 -12 0
483 -484 -8 0
483 -8 -12 0
483 484 -12 0
484 -261 -8 0
484 261 8 0
485 -481 -482 0
485 -482 -486 0
485 481 -486 0
486 -279 -487 0
486 -487 -489 0
486 279 -489 0
487 -12 -476 0
487 -488 -12 0
487 488 -476 0
488 -268 -8 0
488 268 8 0
489 -488 -490 0
489 -490 -12 0
489 488 -12 0
49 -50 -12 0
49 50 12 0
490 -491 -522 0
490 -522 -556 0
490 491 -556 0
491 -492 -521 0
492 -493 -520 0
493 -494 -519 0
494 -495 -518 0
495 -496 -517 0
496 -497 -516 0
497 -498 -515 0
498 -499 -514 0
499 -500 -513 0
5 -6 8 0
5 -8 6 0
50 -12 51 0
50 -51 12 0
500 -501 -512 0
501 -502 -511 0
502 -503 -510 0
503 -504 -509 0
504 -505 -508 0
505 -506 -507 0
506 -55 -8 0
506 55 8 0
507 -62 -8 0
507 62 8 0
508 -71 -8 0
508 71 8 0
509 -84 -8 0
509 84 8 0
51 -52 53 0
51 -53 52 0
510 -97 -8 0
510 97 8 0
511 -110 -8 0
511 110 8 0
512 -123 -8 0
512 123 8 0
513 -136 -8 0
513 136 8 0
514 -149 -8 0
514 149 8 0
515 -162 -8 0
515 162 8 0
516 -175 -8 0
516 175 8 0
517 -188 -8 0
517 188 8 0
518 -201 -8 0
518 201 8 0
519 -214 -8 0
519 214 8 0
520 -227 -8 0
520 227 8 0
521 -240 -8 0
521 240 8 0
522 -523 -554 0
522 -554 -12 0
522 523 -12 0
523 -524 -553 0
524 -525 -552 0
525 -526 -551 0
526 -527 -550 0
527 -528 -549 0
528 -529 -548 0
529 -530 -547 0
53 -54 8 0
53 -8 54 0
530 -531 -546 0
531 -532 -545 0
532 -533 -544 0
533 -534 -543 0
534 -535 -542 0
535 -536 -541 0
536 -537 -540 0
537 -538 -539 0
538 -299 -12 0
538 299 12 0
539 -305 -12 0
539 305 12 0
54 55 0
540 -313 -12 0
540 313 12 0
541 -325 -12 0
541 325 12 0
542 -337 -12 0
542 337 12 0
543 -349 -12 0
543 349 12 0
544 -361 -12 0
544 361 12 0
545 -373 -12 0
545 373 12 0
546 -385 -12 0
546 385 12 0
547 -397 -12 0
547 397 12 0
548 -409 -12 0
548 409 12 0
549 -421 -12 0
549 421 12 0
550 -433 -12 0
550 433 12 0
551 -445 -12 0
551 445 12 0
552 -457 -12 0
552 457 12 0
553 -469 -12 0
553 469 12 0
554 -555 -8 0
554 -8 -12 0
554 555 -12 0
555 -478 -8 0
555 478 8 0
556 -476 -12 0
556 -557 -476 0
556 557 -12 0
557 -558 -587 0
558 -559 -586 0
559 -560 -585 0
56 -57 -12 0
56 57 12 0
560 -561 -584 0
561 -562 -583 0
562 -563 -582 0
563 -564 -581 0
564 -565 -580 0
565 -566 -579 0
566 -567 -578 0
567 -568 -577 0
568 -569 -576 0
569 -570 -575 0
57 -58 64 0
57 -64 58 0
570 -571 -574 0
571 -572 -573 0
572 -295 -8 0
572 295 8 0
573 -301 -8 0
573 301 8 0
574 -309 -8 0
574 309 8 0
575 -321 -8 0
575 321 8 0
576 -333 -8 0
576 333 8 0
577 -345 -8 0
577 345 8 0
578 -357 -8 0
578 357 8 0
579 -369 -8 0
579 369 8 0
58 -59 60 0
58 -60 59 0
580 -381 -8 0
580 381 8 0
581 -393 -8 0
581 393 8 0
582 -405 -8 0
582 405 8 0
583 -417 -8 0
583 417 8 0
584 -429 -8 0
584 429 8 0
585 -441 -8 0
585 441 8 0
586 -453 -8 0
586 453 8 0
587 -465 -8 0
587 465 8 0
588 -589 -590 0
588 -590 -595 0
588 589 -595 0
589 -30 -8 0
589 30 8 0
590 -34 -591 0
590 -591 -12 0
590 34 -12 0
591 -592 -593 0
591 -593 -12 0
591 592 -12 0
592 -9 -8 0
592 9 8 0
593 -255 -594 0
593 -594 -12 0
593 255 -12 0
594 -265 -278 0
594 -278 -485 0
594 265 -485 0
595 -34 -596 0
595 -596 -12 0
595 34 -12 0
596 -248 -597 0
596 -597 -12 0
596 248 -12 0
597 -255 -598 0
597 -598 -12 0
597 255 -12 0
598 -265 -599 0
598 -599 -485 0
598 265 -485 0
599 -272 -278 0
599 -278 -482 0
599 272 -482 0
6 7 0
60 -61 63 0
60 -63 61 0
600 -589 -590 0
600 -590 -601 0
600 589 -601 0
601 -34 -602 0
601 -602 -609 0
601 34 -609 0
602 -12 -604 0
602 -603 -12 0
602 603 -604 0
603 -20 -8 0
603 20 8 0
604 -248 -605 0
604 -605 -12 0
604 248 -12 0
605 -255 -606 0
605 -606 -12 0
605 255 -12 0
606 -265 -599 0
606 -599 -607 0
606 265 -607 0
607 -481 -482 0
607 -482 -608 0
607 481 -608 0
608 -12 -490 0
608 -279 -12 0
608 279 -490 0
609 -603 -610 0
609 -610 -12 0
609 603 -12 0
61 62 0
610 -611 -642 0
610 -642 -678 0
610 611 -678 0
611 -612 -641 0
612 -613 -640 0
613 -614 -639 0
614 -615 -638 0
615 -616 -637 0
616 -617 -636 0
617 -618 -635 0
618 -619 -634 0
619 -620 -633 0
620 -621 -632 0
621 -622 -631 0
622 -623 -630 0
623 -624 -629 0
624 -625 -628 0
625 -626 -627 0
626 -52 -8 0
626 52 8 0
627 -59 -8 0
627 59 8 0
628 -68 -8 0
628 68 8 0
629 -81 -8 0
629 81 8 0
63 -54 -8 0
630 -94 -8 0
630 94 8 0
631 -107 -8 0
631 107 8 0
632 -120 -8 0
632 120 8 0
633 -133 -8 0
633 133 8 0
634 -146 -8 0
634 146 8 0
635 -159 -8 0
635 159 8 0
636 -172 -8 0
636 172 8 0
637 -185 -8 0
637 185 8 0
638 -198 -8 0
638 198 8 0
639 -211 -8 0
639 211 8 0
64 -52 -53 0
640 -224 -8 0
640 224 8 0
641 -237 -8 0
641 237 8 0
642 -643 -674 0
642 -674 -12 0
642 643 -12 0
643 -644 -673 0
644 -645 -672 0
645 -646 -671 0
646 -647 -670 0
647 -648 -669 0
648 -649 -668 0
649 -650 -667 0
65 -66 -12 0
65 66 12 0
650 -651 -666 0
651 -652 -665 0
652 -653 -664 0
653 -654 -663 0
654 -655 -662 0
655 -656 -661 0
656 -657 -660 0
657 -658 -659 0
658 -55 -12 0
658 55 12 0
659 -62 -12 0
659 62 12 0
66 -67 73 0
66 -73 67 0
660 -71 -12 0
660 71 12 0
661 -84 -12 0
661 84 12 0
662 -97 -12 0
662 97 12 0
663 -110 -12 0
663 110 12 0
664 -123 -12 0
664 123 12 0
665 -136 -12 0
665 136 12 0
666 -149 -12 0
666 149 12 0
667 -162 -12 0
667 162 12 0
668 -175 -12 0
668 175 12 0
669 -188 -12 0
669 188 12 0
67 -68 69 0
67 -69 68 0
670 -201 -12 0
670 201 12 0
671 -214 -12 0
671 214 12 0
672 -227 -12 0
672 227 12 0
673 -240 -12 0
673 240 12 0
674 -675 -676 0
674 -676 -12 0
674 675 -12 0
675 -249 -8 0
675 249 8 0
676 -255 -677 0
676 -677 -12 0
676 255 -12 0
677 -265 -599 0
677 -599 -480 0
677 265 -480 0
678 -679 -710 0
678 -710 -12 0
678 679 -12 0
679 -680 -709 0
680 -681 -708 0
681 -682 -707 0
682 -683 -706 0
683 -684 -705 0
684 -685 -704 0
685 -686 -703 0
686 -687 -702 0
687 -688 -701 0
688 -689 -700 0
689 -690 -699 0
69 -70 72 0
69 -72 70 0
690 -691 -698 0
691 -692 -697 0
692 -693 -696 0
693 -694 -695 0
694 -50 -8 0
694 50 8 0
695 -57 -8 0
695 57 8 0
696 -66 -8 0
696 66 8 0
697 -79 -8 0
697 79 8 0
698 -92 -8 0
698 92 8 0
699 -105 -8 0
699 105 8 0
70 71 0
700 -118 -8 0
700 118 8 0
701 -131 -8 0
701 131 8 0
702 -144 -8 0
702 144 8 0
703 -157 -8 0
703 157 8 0
704 -170 -8 0
704 170 8 0
705 -183 -8 0
705 183 8 0
706 -196 -8 0
706 196 8 0
707 -209 -8 0
707 209 8 0
708 -222 -8 0
708 222 8 0
709 -235 -8 0
709 235 8 0
710 -248 -676 0
710 -676 -12 0
710 248 -12 0
72 -61 -63 0
73 -74 0
73 -77 0
74 -75 0
74 -76 0
75 -59 -60 0
76 -60 -64 0
77 -59 -64 0
78 -79 -12 0
78 79 12 0
79 -80 86 0
79 -86 80 0
8 0
80 -81 82 0
80 -82 81 0
82 -83 85 0
82 -85 83 0
83 84 0
85 -70 -72 0
86 -87 0
86 -90 0
87 -88 0
87 -89 0
88 -68 -69 0
89 -69 -73 0
9 -10 8 0
9 -8 10 0
90 -68 -73 0
91 -92 -12 0
91 92 12 0
92 -93 99 0
92 -99 93 0
93 -94 95 0
93 -95 94 0
95 -96 98 0
95 -98 96 0
96 97 0
98 -83 -85 0
99 -100 0
99 -103 0
